(declare-fun bvlambda_47_ () (_ BitVec 1))
(declare-fun bvlambda_64_ () (_ BitVec 1))
(declare-fun bvlambda_65_ () (_ BitVec 1))
(declare-fun bvlambda_66_ () (_ BitVec 1))
(declare-fun a161 () (Array (_ BitVec 1) (_ BitVec 6)))
(assert
(let (($e1 (_ bv0 1)))
(let (($e6 (_ bv4 3)))
(let (($e10 (_ bv0 6)))
(let (($e198 (concat        $e6  bvlambda_64_)))
(let (($e199 (concat $e198 bvlambda_65_)))
(let (($e200 (concat $e199 bvlambda_66_)))
(let (($e206        a161                    ))
(let (($e207 (store $e206 (bvnot $e1) $e200)))
(let (($e208 (store $e207 bvlambda_47_ $e10)))
(let (($e209 (select $e208 (bvnot $e1))))
(let (($e211                    $e209  ))
(let (($e212               $e211                ))
(let (($e213              $e212 ))
(let (($e217                     $e213  ))
(let (($e218               $e217                ))
             (   extract        $e218)
                                                                                                                                                                                                                                                                                                                                                                                                                                                                                                                                                                                                                                                                                                                                                                                                                                                                                                                                                                                                                                                                                                                                                                                                                                                                                                                                                                                                                                                                                                                                                                                                                                                                                                                                                                                                                                                                                                                                                                                                                                                                                                                                                                                                                                                                                                                                                                                                                                                              ))   ))) ))))     )))                                                                                                          )   )    ))
